<number of tasks>
70

<cycle time>
320

<task times>
1 17
2 66
3 54
4 52
5 6
6 88
7 21
8 128
9 68
10 70
11 85
12 21
13 134
14 135
15 94
16 90
17 50
18 143
19 19
20 54
21 50
22 40
23 73
24 12
25 152
26 42
27 45
28 74
29 26
30 11
31 31
32 50
33 102
34 46
35 35
36 40
37 2
38 1
39 3
40 13
41 16
42 25
43 21
44 43
45 30
46 83
47 89
48 56
49 59
50 43
51 11
52 26
53 44
54 121
55 38
56 68
57 22
58 7
59 16
60 32
61 25
62 27
63 156
64 28
65 15
66 26
67 18
68 72
69 23
70 27

<precedence relations>
1,2
1,41
1,69
1,70
2,3
3,4
3,68
4,6
4,7
5,6
5,24
5,30
6,8
7,8
8,12
9,10
10,11
11,12
12,13
12,14
13,23
14,23
15,16
16,17
16,18
17,19
18,19
19,20
19,22
19,57
20,21
21,23
22,23
23,25
23,31
23,33
24,25
25,26
25,27
25,28
25,29
26,35
27,35
28,35
29,35
30,31
31,32
32,35
33,34
34,35
35,36
35,44
35,48
35,51
35,53
35,56
35,60
35,61
35,62
36,37
37,38
38,39
39,40
40,42
41,42
42,43
43,50
44,45
45,46
46,47
47,50
48,49
49,50
51,52
52,54
53,54
54,55
57,58
58,59
59,60
61,65
62,63
63,64
64,65
64,66
64,67

<setup times forward>
1,9:10
1,10:10
1,11:4
1,16:10
1,17:4
1,18:4
1,19:4
1,20:4
1,21:4
1,22:4
1,30:5
1,57:4
1,58:3
1,59:5
1,69:3
1,70:4
2,9:10
2,10:10
2,11:4
2,16:10
2,17:4
2,18:4
2,19:4
2,20:4
2,21:4
2,22:4
2,30:5
2,57:4
2,58:3
2,59:5
2,69:3
2,70:4
3,9:10
3,10:10
3,11:4
3,16:10
3,17:4
3,18:4
3,19:4
3,20:4
3,21:4
3,22:4
3,30:5
3,57:4
3,58:3
3,59:5
3,68:5
3,69:3
3,70:4
4,6:10
4,7:4
4,9:10
4,10:10
4,11:4
4,16:10
4,17:4
4,18:4
4,19:4
4,20:4
4,21:4
4,22:4
4,30:5
4,57:4
4,58:3
4,59:5
4,68:5
4,69:3
4,70:4
5,6:10
5,7:4
5,9:10
5,10:10
5,11:4
5,16:10
5,17:4
5,18:4
5,19:4
5,20:4
5,21:4
5,22:4
5,30:5
5,57:4
5,58:3
5,59:5
5,68:5
5,69:3
5,70:4
6,7:14
6,8:14
6,11:6
6,15:10
6,17:6
6,18:14
6,19:6
6,20:6
6,21:6
6,22:6
6,24:10
6,30:15
6,41:10
6,57:6
6,58:7
6,59:15
6,68:15
6,69:7
6,70:14
7,5:4
7,6:14
7,9:14
7,10:14
7,11:8
7,15:4
7,16:14
7,17:8
7,19:8
7,20:8
7,21:8
7,22:8
7,24:4
7,30:1
7,41:4
7,57:8
7,58:7
7,59:1
7,68:1
7,69:7
8,9:14
8,10:14
8,11:8
8,12:7
8,15:4
8,16:14
8,17:8
8,19:8
8,20:8
8,21:8
8,22:8
8,24:4
8,30:1
8,41:4
8,57:8
8,58:7
8,59:1
8,68:1
8,69:7
9,1:10
9,2:10
9,3:10
9,4:10
9,5:10
9,7:14
9,8:14
9,15:10
9,17:6
9,18:14
9,19:6
9,20:6
9,21:6
9,22:6
9,24:10
9,30:15
9,41:10
9,57:6
9,58:7
9,59:15
9,68:15
9,69:7
9,70:14
10,1:10
10,2:10
10,3:10
10,4:10
10,5:10
10,7:14
10,8:14
10,11:6
10,15:10
10,17:6
10,18:14
10,19:6
10,20:6
10,21:6
10,22:6
10,24:10
10,30:15
10,41:10
10,57:6
10,58:7
10,59:15
10,68:15
10,69:7
10,70:14
11,1:4
11,2:4
11,3:4
11,4:4
11,5:4
11,6:6
11,7:8
11,8:8
11,12:1
11,15:4
11,16:6
11,18:8
11,24:4
11,30:9
11,41:4
11,58:1
11,59:9
11,68:9
11,69:1
11,70:8
12,15:3
12,16:7
12,17:1
12,18:7
12,19:1
12,20:1
12,21:1
12,22:1
12,24:3
12,30:8
12,41:3
12,57:1
12,59:8
12,68:8
12,70:7
13,15:3
13,16:7
13,17:1
13,18:7
13,19:1
13,20:1
13,21:1
13,22:1
13,23:8
13,24:3
13,30:8
13,41:3
13,57:1
13,59:8
13,68:8
13,70:7
14,15:3
14,16:7
14,17:1
14,18:7
14,19:1
14,20:1
14,21:1
14,22:1
14,23:8
14,24:3
14,30:8
14,41:3
14,57:1
14,59:8
14,68:8
14,70:7
15,6:10
15,7:4
15,8:4
15,9:10
15,10:10
15,11:4
15,12:3
15,13:3
15,14:3
15,16:10
15,30:5
15,68:5
15,69:3
15,70:4
16,1:10
16,2:10
16,3:10
16,4:10
16,5:10
16,7:14
16,8:14
16,11:6
16,12:7
16,13:7
16,14:7
16,17:6
16,18:14
16,24:10
16,30:15
16,41:10
16,68:15
16,69:7
16,70:14
17,1:4
17,2:4
17,3:4
17,4:4
17,5:4
17,6:6
17,7:8
17,8:8
17,9:6
17,10:6
17,12:1
17,13:1
17,14:1
17,18:8
17,24:4
17,30:9
17,41:4
17,68:9
17,69:1
17,70:8
18,1:4
18,2:4
18,3:4
18,4:4
18,5:4
18,6:14
18,9:14
18,10:14
18,11:8
18,12:7
18,13:7
18,14:7
18,17:8
18,19:8
18,24:4
18,30:1
18,41:4
18,68:1
18,69:7
19,1:4
19,2:4
19,3:4
19,4:4
19,5:4
19,6:6
19,7:8
19,8:8
19,9:6
19,10:6
19,12:1
19,13:1
19,14:1
19,24:4
19,30:9
19,41:4
19,68:9
19,69:1
19,70:8
20,1:4
20,2:4
20,3:4
20,4:4
20,5:4
20,6:6
20,7:8
20,8:8
20,9:6
20,10:6
20,12:1
20,13:1
20,14:1
20,24:4
20,30:9
20,41:4
20,58:1
20,59:9
20,68:9
20,69:1
20,70:8
21,1:4
21,2:4
21,3:4
21,4:4
21,5:4
21,6:6
21,7:8
21,8:8
21,9:6
21,10:6
21,12:1
21,13:1
21,14:1
21,23:9
21,24:4
21,30:9
21,41:4
21,58:1
21,59:9
21,68:9
21,69:1
21,70:8
22,1:4
22,2:4
22,3:4
22,4:4
22,5:4
22,6:6
22,7:8
22,8:8
22,9:6
22,10:6
22,12:1
22,13:1
22,14:1
22,23:9
22,24:4
22,30:9
22,41:4
22,58:1
22,59:9
22,68:9
22,69:1
22,70:8
23,24:5
23,25:5
23,31:5
23,41:5
23,57:9
23,58:8
23,69:8
23,70:1
24,6:10
24,7:4
24,8:4
24,9:10
24,10:10
24,11:4
24,12:3
24,13:3
24,14:3
24,16:10
24,17:4
24,18:4
24,19:4
24,20:4
24,21:4
24,22:4
24,23:5
24,30:5
24,33:5
24,34:5
24,57:4
24,58:3
24,59:5
24,68:5
24,69:3
24,70:4
25,28:9
25,29:9
25,30:5
25,33:5
25,34:5
25,57:4
25,58:3
25,59:5
25,68:5
25,69:3
25,70:4
26,28:9
26,29:9
26,30:5
26,33:5
26,34:5
26,35:9
26,57:4
26,58:3
26,59:5
26,68:5
26,69:3
26,70:4
27,28:9
27,29:9
27,30:5
27,33:5
27,34:5
27,35:9
27,57:4
27,58:3
27,59:5
27,68:5
27,69:3
27,70:4
28,26:9
28,27:9
28,30:4
28,31:9
28,32:9
28,33:4
28,34:4
28,41:9
28,57:13
28,58:12
28,59:4
28,68:4
28,69:12
28,70:5
29,26:9
29,27:9
29,30:4
29,31:9
29,32:9
29,33:4
29,34:4
29,41:9
29,57:13
29,58:12
29,59:4
29,68:4
29,69:12
29,70:5
30,1:5
30,2:5
30,3:5
30,4:5
30,6:15
30,7:1
30,8:1
30,9:15
30,10:15
30,11:9
30,12:8
30,13:8
30,14:8
30,15:5
30,16:15
30,17:9
30,18:1
30,19:9
30,20:9
30,21:9
30,22:9
30,24:5
30,25:5
30,26:5
30,27:5
30,28:4
30,29:4
30,31:5
30,41:5
30,57:9
30,58:8
30,69:8
30,70:1
31,28:9
31,29:9
31,33:5
31,34:5
31,57:4
31,58:3
31,59:5
31,68:5
31,69:3
31,70:4
32,28:9
32,29:9
32,33:5
32,34:5
32,35:9
32,57:4
32,58:3
32,59:5
32,68:5
32,69:3
32,70:4
33,24:5
33,25:5
33,26:5
33,27:5
33,28:4
33,29:4
33,31:5
33,32:5
33,41:5
33,57:9
33,58:8
33,69:8
33,70:1
34,24:5
34,25:5
34,26:5
34,27:5
34,28:4
34,29:4
34,31:5
34,32:5
34,35:4
34,41:5
34,57:9
34,58:8
34,69:8
34,70:1
35,36:15
35,41:9
35,48:5
35,51:5
35,53:5
35,56:5
35,57:13
35,58:12
35,59:4
35,60:15
35,61:5
35,68:4
35,69:12
35,70:5
36,41:6
36,44:15
36,45:15
36,46:15
36,48:10
36,49:17
36,51:10
36,52:10
36,53:10
36,54:17
36,55:17
36,56:10
36,57:2
36,58:3
36,59:11
36,61:10
36,62:15
36,64:10
36,65:17
36,66:17
36,67:17
36,68:11
36,69:3
36,70:10
37,41:6
37,44:15
37,45:15
37,46:15
37,48:10
37,49:17
37,51:10
37,52:10
37,53:10
37,54:17
37,55:17
37,56:10
37,57:2
37,58:3
37,59:11
37,61:10
37,62:15
37,64:10
37,65:17
37,66:17
37,67:17
37,68:11
37,69:3
37,70:10
38,39:10
38,41:6
38,44:15
38,45:15
38,46:15
38,48:10
38,49:17
38,51:10
38,52:10
38,53:10
38,54:17
38,55:17
38,56:10
38,57:2
38,58:3
38,59:11
38,61:10
38,62:15
38,64:10
38,65:17
38,66:17
38,67:17
38,68:11
38,69:3
38,70:10
39,41:4
39,44:5
39,45:5
39,46:5
39,47:10
39,49:7
39,54:7
39,55:7
39,57:8
39,58:7
39,59:1
39,60:10
39,62:5
39,63:10
39,65:7
39,66:7
39,67:7
39,68:1
39,69:7
40,41:4
40,44:5
40,45:5
40,46:5
40,47:10
40,49:7
40,54:7
40,55:7
40,57:8
40,58:7
40,59:1
40,60:10
40,62:5
40,63:10
40,65:7
40,66:7
40,67:7
40,68:1
40,69:7
41,6:10
41,7:4
41,8:4
41,9:10
41,10:10
41,11:4
41,12:3
41,13:3
41,14:3
41,16:10
41,17:4
41,18:4
41,19:4
41,20:4
41,21:4
41,22:4
41,23:5
41,28:9
41,29:9
41,30:5
41,33:5
41,34:5
41,35:9
41,36:6
41,37:6
41,38:6
41,39:4
41,40:4
41,42:4
41,44:9
41,45:9
41,46:9
41,47:6
41,48:4
41,49:11
41,51:4
41,52:4
41,53:4
41,54:11
41,55:11
41,56:4
41,57:4
41,58:3
41,59:5
41,60:6
41,61:4
41,62:9
41,63:6
41,64:4
41,65:11
41,66:11
41,67:11
41,68:5
41,69:3
41,70:4
42,44:5
42,45:5
42,46:5
42,47:10
42,49:7
42,54:7
42,55:7
42,57:8
42,58:7
42,59:1
42,60:10
42,62:5
42,63:10
42,65:7
42,66:7
42,67:7
42,68:1
42,69:7
43,44:5
43,45:5
43,46:5
43,47:10
43,49:7
43,50:7
43,54:7
43,55:7
43,57:8
43,58:7
43,59:1
43,60:10
43,62:5
43,63:10
43,65:7
43,66:7
43,67:7
43,68:1
43,69:7
44,36:15
44,37:15
44,38:15
44,39:5
44,40:5
44,41:9
44,42:5
44,43:5
44,48:5
44,49:2
44,51:5
44,52:5
44,53:5
44,54:2
44,55:2
44,56:5
44,57:13
44,58:12
44,59:4
44,60:15
44,61:5
44,63:15
44,64:5
44,65:2
44,66:2
44,67:2
44,68:4
44,69:12
44,70:5
45,36:15
45,37:15
45,38:15
45,39:5
45,40:5
45,41:9
45,42:5
45,43:5
45,48:5
45,49:2
45,51:5
45,52:5
45,53:5
45,54:2
45,55:2
45,56:5
45,57:13
45,58:12
45,59:4
45,60:15
45,61:5
45,63:15
45,64:5
45,65:2
45,66:2
45,67:2
45,68:4
45,69:12
45,70:5
46,36:15
46,37:15
46,38:15
46,39:5
46,40:5
46,41:9
46,42:5
46,43:5
46,47:15
46,48:5
46,49:2
46,51:5
46,52:5
46,53:5
46,54:2
46,55:2
46,56:5
46,57:13
46,58:12
46,59:4
46,60:15
46,61:5
46,63:15
46,64:5
46,65:2
46,66:2
46,67:2
46,68:4
46,69:12
46,70:5
47,39:10
47,40:10
47,41:6
47,42:10
47,43:10
47,48:10
47,49:17
47,50:17
47,51:10
47,52:10
47,53:10
47,54:17
47,55:17
47,56:10
47,57:2
47,58:3
47,59:11
47,61:10
47,62:15
47,64:10
47,65:17
47,66:17
47,67:17
47,68:11
47,69:3
47,70:10
48,36:10
48,37:10
48,38:10
48,41:4
48,44:5
48,45:5
48,46:5
48,47:10
48,49:7
48,54:7
48,55:7
48,57:8
48,58:7
48,59:1
48,60:10
48,62:5
48,63:10
48,65:7
48,66:7
48,67:7
48,68:1
48,69:7
49,36:17
49,37:17
49,38:17
49,39:7
49,40:7
49,41:11
49,42:7
49,43:7
49,44:2
49,45:2
49,46:2
49,47:17
49,51:7
49,52:7
49,53:7
49,56:7
49,57:15
49,58:14
49,59:6
49,60:17
49,61:7
49,62:2
49,63:17
49,64:7
49,68:6
49,69:14
49,70:7
50,51:7
50,52:7
50,53:7
50,56:7
50,57:15
50,58:14
50,59:6
50,60:17
50,61:7
50,62:2
50,63:17
50,64:7
50,68:6
50,69:14
50,70:7
51,36:10
51,37:10
51,38:10
51,41:4
51,44:5
51,45:5
51,46:5
51,47:10
51,49:7
51,50:7
51,57:8
51,58:7
51,59:1
51,60:10
51,62:5
51,63:10
51,65:7
51,66:7
51,67:7
51,68:1
51,69:7
52,36:10
52,37:10
52,38:10
52,41:4
52,44:5
52,45:5
52,46:5
52,47:10
52,49:7
52,50:7
52,54:7
52,57:8
52,58:7
52,59:1
52,60:10
52,62:5
52,63:10
52,65:7
52,66:7
52,67:7
52,68:1
52,69:7
53,36:10
53,37:10
53,38:10
53,41:4
53,44:5
53,45:5
53,46:5
53,47:10
53,49:7
53,50:7
53,54:7
53,57:8
53,58:7
53,59:1
53,60:10
53,62:5
53,63:10
53,65:7
53,66:7
53,67:7
53,68:1
53,69:7
54,36:17
54,37:17
54,38:17
54,39:7
54,40:7
54,41:11
54,42:7
54,43:7
54,44:2
54,45:2
54,46:2
54,47:17
54,48:7
54,56:7
54,57:15
54,58:14
54,59:6
54,60:17
54,61:7
54,62:2
54,63:17
54,64:7
54,68:6
54,69:14
54,70:7
55,36:17
55,37:17
55,38:17
55,39:7
55,40:7
55,41:11
55,42:7
55,43:7
55,44:2
55,45:2
55,46:2
55,47:17
55,48:7
55,56:7
55,57:15
55,58:14
55,59:6
55,60:17
55,61:7
55,62:2
55,63:17
55,64:7
55,68:6
55,69:14
55,70:7
56,36:10
56,37:10
56,38:10
56,41:4
56,44:5
56,45:5
56,46:5
56,47:10
56,49:7
56,50:7
56,54:7
56,55:7
56,57:8
56,58:7
56,59:1
56,60:10
56,62:5
56,63:10
56,65:7
56,66:7
56,67:7
56,68:1
56,69:7
57,1:4
57,2:4
57,3:4
57,4:4
57,5:4
57,6:6
57,7:8
57,8:8
57,9:6
57,10:6
57,12:1
57,13:1
57,14:1
57,23:9
57,24:4
57,25:4
57,26:4
57,27:4
57,28:13
57,29:13
57,30:9
57,31:4
57,32:4
57,33:9
57,34:9
57,35:13
57,36:2
57,37:2
57,38:2
57,39:8
57,40:8
57,41:4
57,42:8
57,43:8
57,44:13
57,45:13
57,46:13
57,47:2
57,48:8
57,49:15
57,50:15
57,51:8
57,52:8
57,53:8
57,54:15
57,55:15
57,56:8
57,58:1
57,61:8
57,62:13
57,63:2
57,64:8
57,65:15
57,66:15
57,67:15
57,68:9
57,69:1
57,70:8
58,1:3
58,2:3
58,3:3
58,4:3
58,5:3
58,6:7
58,7:7
58,8:7
58,9:7
58,10:7
58,11:1
58,20:1
58,21:1
58,22:1
58,23:8
58,24:3
58,25:3
58,26:3
58,27:3
58,28:12
58,29:12
58,30:8
58,31:3
58,32:3
58,33:8
58,34:8
58,35:12
58,36:3
58,37:3
58,38:3
58,39:7
58,40:7
58,41:3
58,42:7
58,43:7
58,44:12
58,45:12
58,46:12
58,47:3
58,48:7
58,49:14
58,50:14
58,51:7
58,52:7
58,53:7
58,54:14
58,55:14
58,56:7
58,59:8
58,61:7
58,62:12
58,63:3
58,64:7
58,65:14
58,66:14
58,67:14
58,68:8
58,70:7
59,1:5
59,2:5
59,3:5
59,4:5
59,5:5
59,6:15
59,7:1
59,8:1
59,9:15
59,10:15
59,11:9
59,12:8
59,13:8
59,14:8
59,20:9
59,21:9
59,22:9
59,24:5
59,25:5
59,26:5
59,27:5
59,28:4
59,29:4
59,31:5
59,32:5
59,35:4
59,36:11
59,37:11
59,38:11
59,39:1
59,40:1
59,41:5
59,42:1
59,43:1
59,44:4
59,45:4
59,46:4
59,47:11
59,48:1
59,49:6
59,50:6
59,51:1
59,52:1
59,53:1
59,54:6
59,55:6
59,56:1
59,60:11
59,61:1
59,62:4
59,63:11
59,64:1
59,65:6
59,66:6
59,67:6
59,69:8
59,70:1
60,39:10
60,40:10
60,41:6
60,42:10
60,43:10
60,44:15
60,45:15
60,46:15
60,48:10
60,49:17
60,50:17
60,51:10
60,52:10
60,53:10
60,54:17
60,55:17
60,56:10
60,61:10
60,62:15
60,64:10
60,65:17
60,66:17
60,67:17
60,68:11
60,69:3
60,70:10
61,36:10
61,37:10
61,38:10
61,41:4
61,44:5
61,45:5
61,46:5
61,47:10
61,49:7
61,50:7
61,54:7
61,55:7
61,57:8
61,58:7
61,59:1
61,60:10
61,62:5
61,63:10
61,65:7
61,66:7
61,67:7
61,68:1
61,69:7
62,36:15
62,37:15
62,38:15
62,39:5
62,40:5
62,41:9
62,42:5
62,43:5
62,47:15
62,48:5
62,49:2
62,50:2
62,51:5
62,52:5
62,53:5
62,54:2
62,55:2
62,56:5
62,57:13
62,58:12
62,59:4
62,60:15
62,61:5
62,63:15
62,68:4
62,69:12
62,70:5
63,39:10
63,40:10
63,41:6
63,42:10
63,43:10
63,44:15
63,45:15
63,46:15
63,48:10
63,49:17
63,50:17
63,51:10
63,52:10
63,53:10
63,54:17
63,55:17
63,56:10
63,57:2
63,58:3
63,59:11
63,61:10
63,64:10
63,68:11
63,69:3
63,70:10
64,36:10
64,37:10
64,38:10
64,41:4
64,44:5
64,45:5
64,46:5
64,47:10
64,49:7
64,50:7
64,54:7
64,55:7
64,57:8
64,58:7
64,59:1
64,60:10
64,65:7
64,66:7
64,67:7
64,68:1
64,69:7
65,36:17
65,37:17
65,38:17
65,39:7
65,40:7
65,41:11
65,42:7
65,43:7
65,44:2
65,45:2
65,46:2
65,47:17
65,48:7
65,51:7
65,52:7
65,53:7
65,56:7
65,57:15
65,58:14
65,59:6
65,60:17
65,68:6
65,69:14
65,70:7
66,36:17
66,37:17
66,38:17
66,39:7
66,40:7
66,41:11
66,42:7
66,43:7
66,44:2
66,45:2
66,46:2
66,47:17
66,48:7
66,51:7
66,52:7
66,53:7
66,56:7
66,57:15
66,58:14
66,59:6
66,60:17
66,61:7
66,68:6
66,69:14
66,70:7
67,36:17
67,37:17
67,38:17
67,39:7
67,40:7
67,41:11
67,42:7
67,43:7
67,44:2
67,45:2
67,46:2
67,47:17
67,48:7
67,51:7
67,52:7
67,53:7
67,56:7
67,57:15
67,58:14
67,59:6
67,60:17
67,61:7
67,68:6
67,69:14
67,70:7
68,4:5
68,5:5
68,6:15
68,7:1
68,8:1
68,9:15
68,10:15
68,11:9
68,12:8
68,13:8
68,14:8
68,15:5
68,16:15
68,17:9
68,18:1
68,19:9
68,20:9
68,21:9
68,22:9
68,24:5
68,25:5
68,26:5
68,27:5
68,28:4
68,29:4
68,31:5
68,32:5
68,35:4
68,36:11
68,37:11
68,38:11
68,39:1
68,40:1
68,41:5
68,42:1
68,43:1
68,44:4
68,45:4
68,46:4
68,47:11
68,48:1
68,49:6
68,50:6
68,51:1
68,52:1
68,53:1
68,54:6
68,55:6
68,56:1
68,57:9
68,58:8
68,60:11
68,61:1
68,62:4
68,63:11
68,64:1
68,65:6
68,66:6
68,67:6
68,69:8
68,70:1
69,2:3
69,3:3
69,4:3
69,5:3
69,6:7
69,7:7
69,8:7
69,9:7
69,10:7
69,11:1
69,15:3
69,16:7
69,17:1
69,18:7
69,19:1
69,20:1
69,21:1
69,22:1
69,23:8
69,24:3
69,25:3
69,26:3
69,27:3
69,28:12
69,29:12
69,30:8
69,31:3
69,32:3
69,33:8
69,34:8
69,35:12
69,36:3
69,37:3
69,38:3
69,39:7
69,40:7
69,41:3
69,42:7
69,43:7
69,44:12
69,45:12
69,46:12
69,47:3
69,48:7
69,49:14
69,50:14
69,51:7
69,52:7
69,53:7
69,54:14
69,55:14
69,56:7
69,57:1
69,59:8
69,60:3
69,61:7
69,62:12
69,63:3
69,64:7
69,65:14
69,66:14
69,67:14
69,68:8
69,70:7
70,2:4
70,3:4
70,4:4
70,5:4
70,6:14
70,9:14
70,10:14
70,11:8
70,12:7
70,13:7
70,14:7
70,15:4
70,16:14
70,17:8
70,19:8
70,20:8
70,21:8
70,22:8
70,23:1
70,24:4
70,25:4
70,26:4
70,27:4
70,28:5
70,29:5
70,30:1
70,31:4
70,32:4
70,33:1
70,34:1
70,35:5
70,36:10
70,37:10
70,38:10
70,41:4
70,44:5
70,45:5
70,46:5
70,47:10
70,49:7
70,50:7
70,54:7
70,55:7
70,57:8
70,58:7
70,59:1
70,60:10
70,62:5
70,63:10
70,65:7
70,66:7
70,67:7
70,68:1
70,69:7

<setup times backward>
1,18:4
1,30:5
1,59:5
2,18:4
2,30:5
2,59:5
2,70:4
3,18:4
3,30:5
3,59:5
3,70:4
4,18:4
4,30:5
4,59:5
4,68:5
4,70:4
5,7:4
5,18:4
5,59:5
5,68:5
5,70:4
6,1:10
6,2:10
6,3:10
6,4:10
6,5:10
6,7:14
6,11:6
6,15:10
6,17:6
6,18:14
6,19:6
6,20:6
6,21:6
6,22:6
6,24:10
6,30:15
6,41:10
6,57:6
6,58:7
6,59:15
6,68:15
6,69:7
6,70:14
7,30:1
7,59:1
7,68:1
8,30:1
8,59:1
8,68:1
9,1:10
9,2:10
9,3:10
9,4:10
9,5:10
9,7:14
9,8:14
9,15:10
9,17:6
9,18:14
9,19:6
9,20:6
9,21:6
9,22:6
9,24:10
9,30:15
9,41:10
9,57:6
9,58:7
9,59:15
9,68:15
9,69:7
9,70:14
10,1:10
10,2:10
10,3:10
10,4:10
10,5:10
10,7:14
10,8:14
10,15:10
10,17:6
10,18:14
10,19:6
10,20:6
10,21:6
10,22:6
10,24:10
10,30:15
10,41:10
10,57:6
10,58:7
10,59:15
10,68:15
10,69:7
10,70:14
11,1:4
11,2:4
11,3:4
11,4:4
11,5:4
11,7:8
11,8:8
11,15:4
11,18:8
11,24:4
11,30:9
11,41:4
11,58:1
11,59:9
11,68:9
11,69:1
11,70:8
12,1:3
12,2:3
12,3:3
12,4:3
12,5:3
12,7:7
12,8:7
12,15:3
12,18:7
12,24:3
12,30:8
12,41:3
12,59:8
12,68:8
12,70:7
13,1:3
13,2:3
13,3:3
13,4:3
13,5:3
13,7:7
13,8:7
13,15:3
13,18:7
13,24:3
13,30:8
13,41:3
13,59:8
13,68:8
13,70:7
14,1:3
14,2:3
14,3:3
14,4:3
14,5:3
14,7:7
14,8:7
14,15:3
14,18:7
14,24:3
14,30:8
14,41:3
14,59:8
14,68:8
14,70:7
15,7:4
15,8:4
15,30:5
15,68:5
15,70:4
16,1:10
16,2:10
16,3:10
16,4:10
16,5:10
16,7:14
16,8:14
16,11:6
16,12:7
16,13:7
16,14:7
16,15:10
16,24:10
16,30:15
16,41:10
16,68:15
16,69:7
16,70:14
17,1:4
17,2:4
17,3:4
17,4:4
17,5:4
17,7:8
17,8:8
17,12:1
17,13:1
17,14:1
17,15:4
17,18:8
17,24:4
17,30:9
17,41:4
17,68:9
17,69:1
17,70:8
18,30:1
18,68:1
19,1:4
19,2:4
19,3:4
19,4:4
19,5:4
19,7:8
19,8:8
19,12:1
19,13:1
19,14:1
19,15:4
19,18:8
19,24:4
19,30:9
19,41:4
19,68:9
19,69:1
19,70:8
20,1:4
20,2:4
20,3:4
20,4:4
20,5:4
20,7:8
20,8:8
20,12:1
20,13:1
20,14:1
20,15:4
20,18:8
20,24:4
20,30:9
20,41:4
20,58:1
20,59:9
20,68:9
20,69:1
20,70:8
21,1:4
21,2:4
21,3:4
21,4:4
21,5:4
21,7:8
21,8:8
21,12:1
21,13:1
21,14:1
21,15:4
21,18:8
21,24:4
21,30:9
21,41:4
21,58:1
21,59:9
21,68:9
21,69:1
21,70:8
22,1:4
22,2:4
22,3:4
22,4:4
22,5:4
22,7:8
22,8:8
22,12:1
22,13:1
22,14:1
22,15:4
22,18:8
22,24:4
22,30:9
22,41:4
22,58:1
22,59:9
22,68:9
22,69:1
22,70:8
24,7:4
24,8:4
24,18:4
24,23:5
24,30:5
24,33:5
24,34:5
24,59:5
24,68:5
24,70:4
25,7:4
25,8:4
25,18:4
25,23:5
25,30:5
25,33:5
25,34:5
25,59:5
25,68:5
25,70:4
26,7:4
26,8:4
26,18:4
26,23:5
26,28:9
26,29:9
26,30:5
26,33:5
26,34:5
26,59:5
26,68:5
26,70:4
27,7:4
27,8:4
27,18:4
27,23:5
27,28:9
27,29:9
27,30:5
27,33:5
27,34:5
27,59:5
27,68:5
27,70:4
30,28:4
30,29:4
31,7:4
31,8:4
31,18:4
31,23:5
31,28:9
31,29:9
31,30:5
31,33:5
31,34:5
31,59:5
31,68:5
31,70:4
32,7:4
32,8:4
32,18:4
32,23:5
32,28:9
32,29:9
32,30:5
32,33:5
32,34:5
32,59:5
32,68:5
32,70:4
33,28:4
33,29:4
34,28:4
34,29:4
36,1:6
36,2:6
36,3:6
36,4:6
36,5:6
36,7:10
36,8:10
36,11:2
36,12:3
36,13:3
36,14:3
36,15:6
36,17:2
36,18:10
36,19:2
36,20:2
36,21:2
36,22:2
36,23:11
36,24:6
36,25:6
36,26:6
36,27:6
36,28:15
36,29:15
36,30:11
36,31:6
36,32:6
36,33:11
36,34:11
36,35:15
36,41:6
36,44:15
36,45:15
36,46:15
36,48:10
36,49:17
36,51:10
36,52:10
36,53:10
36,54:17
36,55:17
36,56:10
36,57:2
36,58:3
36,59:11
36,61:10
36,62:15
36,64:10
36,65:17
36,66:17
36,67:17
36,68:11
36,69:3
36,70:10
37,1:6
37,2:6
37,3:6
37,4:6
37,5:6
37,7:10
37,8:10
37,11:2
37,12:3
37,13:3
37,14:3
37,15:6
37,17:2
37,18:10
37,19:2
37,20:2
37,21:2
37,22:2
37,23:11
37,24:6
37,25:6
37,26:6
37,27:6
37,28:15
37,29:15
37,30:11
37,31:6
37,32:6
37,33:11
37,34:11
37,35:15
37,41:6
37,44:15
37,45:15
37,46:15
37,48:10
37,49:17
37,51:10
37,52:10
37,53:10
37,54:17
37,55:17
37,56:10
37,57:2
37,58:3
37,59:11
37,61:10
37,62:15
37,64:10
37,65:17
37,66:17
37,67:17
37,68:11
37,69:3
37,70:10
38,1:6
38,2:6
38,3:6
38,4:6
38,5:6
38,7:10
38,8:10
38,11:2
38,12:3
38,13:3
38,14:3
38,15:6
38,17:2
38,18:10
38,19:2
38,20:2
38,21:2
38,22:2
38,23:11
38,24:6
38,25:6
38,26:6
38,27:6
38,28:15
38,29:15
38,30:11
38,31:6
38,32:6
38,33:11
38,34:11
38,35:15
38,41:6
38,44:15
38,45:15
38,46:15
38,48:10
38,49:17
38,51:10
38,52:10
38,53:10
38,54:17
38,55:17
38,56:10
38,57:2
38,58:3
38,59:11
38,61:10
38,62:15
38,64:10
38,65:17
38,66:17
38,67:17
38,68:11
38,69:3
38,70:10
39,23:1
39,28:5
39,29:5
39,30:1
39,33:1
39,34:1
39,35:5
39,44:5
39,45:5
39,46:5
39,49:7
39,54:7
39,55:7
39,59:1
39,62:5
39,65:7
39,66:7
39,67:7
39,68:1
40,23:1
40,28:5
40,29:5
40,30:1
40,33:1
40,34:1
40,35:5
40,44:5
40,45:5
40,46:5
40,49:7
40,54:7
40,55:7
40,59:1
40,62:5
40,65:7
40,66:7
40,67:7
40,68:1
41,7:4
41,8:4
41,18:4
41,23:5
41,28:9
41,29:9
41,30:5
41,33:5
41,34:5
41,35:9
41,39:4
41,40:4
41,44:9
41,45:9
41,46:9
41,48:4
41,49:11
41,51:4
41,52:4
41,53:4
41,54:11
41,55:11
41,56:4
41,59:5
41,61:4
41,62:9
41,64:4
41,65:11
41,66:11
41,67:11
41,68:5
41,70:4
42,23:1
42,28:5
42,29:5
42,30:1
42,33:1
42,34:1
42,35:5
42,44:5
42,45:5
42,46:5
42,49:7
42,54:7
42,55:7
42,59:1
42,62:5
42,65:7
42,66:7
42,67:7
42,68:1
43,23:1
43,28:5
43,29:5
43,30:1
43,33:1
43,34:1
43,35:5
43,44:5
43,45:5
43,46:5
43,49:7
43,54:7
43,55:7
43,59:1
43,62:5
43,65:7
43,66:7
43,67:7
43,68:1
44,49:2
44,54:2
44,55:2
44,65:2
44,66:2
44,67:2
45,49:2
45,54:2
45,55:2
45,65:2
45,66:2
45,67:2
46,49:2
46,54:2
46,55:2
46,65:2
46,66:2
46,67:2
47,1:6
47,2:6
47,3:6
47,4:6
47,5:6
47,7:10
47,8:10
47,11:2
47,12:3
47,13:3
47,14:3
47,15:6
47,17:2
47,18:10
47,19:2
47,20:2
47,21:2
47,22:2
47,23:11
47,24:6
47,25:6
47,26:6
47,27:6
47,28:15
47,29:15
47,30:11
47,31:6
47,32:6
47,33:11
47,34:11
47,35:15
47,39:10
47,40:10
47,41:6
47,42:10
47,43:10
47,44:15
47,45:15
47,46:15
47,48:10
47,49:17
47,51:10
47,52:10
47,53:10
47,54:17
47,55:17
47,56:10
47,57:2
47,58:3
47,59:11
47,61:10
47,62:15
47,64:10
47,65:17
47,66:17
47,67:17
47,68:11
47,69:3
47,70:10
48,23:1
48,28:5
48,29:5
48,30:1
48,33:1
48,34:1
48,35:5
48,44:5
48,45:5
48,46:5
48,54:7
48,55:7
48,59:1
48,62:5
48,65:7
48,66:7
48,67:7
48,68:1
51,23:1
51,28:5
51,29:5
51,30:1
51,33:1
51,34:1
51,35:5
51,44:5
51,45:5
51,46:5
51,49:7
51,50:7
51,59:1
51,62:5
51,65:7
51,66:7
51,67:7
51,68:1
52,23:1
52,28:5
52,29:5
52,30:1
52,33:1
52,34:1
52,35:5
52,44:5
52,45:5
52,46:5
52,49:7
52,50:7
52,59:1
52,62:5
52,65:7
52,66:7
52,67:7
52,68:1
53,23:1
53,28:5
53,29:5
53,30:1
53,33:1
53,34:1
53,35:5
53,44:5
53,45:5
53,46:5
53,49:7
53,50:7
53,59:1
53,62:5
53,65:7
53,66:7
53,67:7
53,68:1
56,23:1
56,28:5
56,29:5
56,30:1
56,33:1
56,34:1
56,35:5
56,44:5
56,45:5
56,46:5
56,49:7
56,50:7
56,54:7
56,55:7
56,59:1
56,62:5
56,65:7
56,66:7
56,67:7
56,68:1
57,1:4
57,2:4
57,3:4
57,4:4
57,5:4
57,7:8
57,8:8
57,12:1
57,13:1
57,14:1
57,15:4
57,18:8
57,23:9
57,24:4
57,25:4
57,26:4
57,27:4
57,28:13
57,29:13
57,30:9
57,31:4
57,32:4
57,33:9
57,34:9
57,35:13
57,39:8
57,40:8
57,41:4
57,42:8
57,43:8
57,44:13
57,45:13
57,46:13
57,48:8
57,49:15
57,50:15
57,51:8
57,52:8
57,53:8
57,54:15
57,55:15
57,56:8
57,61:8
57,62:13
57,64:8
57,65:15
57,66:15
57,67:15
57,68:9
57,69:1
57,70:8
58,1:3
58,2:3
58,3:3
58,4:3
58,5:3
58,7:7
58,8:7
58,15:3
58,18:7
58,23:8
58,24:3
58,25:3
58,26:3
58,27:3
58,28:12
58,29:12
58,30:8
58,31:3
58,32:3
58,33:8
58,34:8
58,35:12
58,39:7
58,40:7
58,41:3
58,42:7
58,43:7
58,44:12
58,45:12
58,46:12
58,48:7
58,49:14
58,50:14
58,51:7
58,52:7
58,53:7
58,54:14
58,55:14
58,56:7
58,61:7
58,62:12
58,64:7
58,65:14
58,66:14
58,67:14
58,68:8
58,70:7
59,28:4
59,29:4
59,35:4
59,44:4
59,45:4
59,46:4
59,49:6
59,50:6
59,54:6
59,55:6
59,62:4
59,65:6
59,66:6
59,67:6
60,1:6
60,2:6
60,3:6
60,4:6
60,5:6
60,7:10
60,8:10
60,11:2
60,12:3
60,13:3
60,14:3
60,15:6
60,17:2
60,18:10
60,19:2
60,20:2
60,21:2
60,22:2
60,23:11
60,24:6
60,25:6
60,26:6
60,27:6
60,28:15
60,29:15
60,30:11
60,31:6
60,32:6
60,33:11
60,34:11
60,35:15
60,39:10
60,40:10
60,41:6
60,42:10
60,43:10
60,44:15
60,45:15
60,46:15
60,48:10
60,49:17
60,50:17
60,51:10
60,52:10
60,53:10
60,54:17
60,55:17
60,56:10
60,57:2
60,58:3
60,59:11
60,61:10
60,62:15
60,64:10
60,65:17
60,66:17
60,67:17
60,68:11
60,69:3
60,70:10
61,23:1
61,28:5
61,29:5
61,30:1
61,33:1
61,34:1
61,35:5
61,44:5
61,45:5
61,46:5
61,49:7
61,50:7
61,54:7
61,55:7
61,59:1
61,62:5
61,66:7
61,67:7
61,68:1
62,49:2
62,50:2
62,54:2
62,55:2
63,1:6
63,2:6
63,3:6
63,4:6
63,5:6
63,7:10
63,8:10
63,11:2
63,12:3
63,13:3
63,14:3
63,15:6
63,17:2
63,18:10
63,19:2
63,20:2
63,21:2
63,22:2
63,23:11
63,24:6
63,25:6
63,26:6
63,27:6
63,28:15
63,29:15
63,30:11
63,31:6
63,32:6
63,33:11
63,34:11
63,35:15
63,39:10
63,40:10
63,41:6
63,42:10
63,43:10
63,44:15
63,45:15
63,46:15
63,48:10
63,49:17
63,50:17
63,51:10
63,52:10
63,53:10
63,54:17
63,55:17
63,56:10
63,57:2
63,58:3
63,59:11
63,61:10
63,62:15
63,68:11
63,69:3
63,70:10
64,23:1
64,28:5
64,29:5
64,30:1
64,33:1
64,34:1
64,35:5
64,44:5
64,45:5
64,46:5
64,49:7
64,50:7
64,54:7
64,55:7
64,59:1
64,62:5
64,68:1
68,28:4
68,29:4
68,35:4
68,44:4
68,45:4
68,46:4
68,49:6
68,50:6
68,54:6
68,55:6
68,62:4
68,65:6
68,66:6
68,67:6
69,1:3
69,2:3
69,3:3
69,4:3
69,5:3
69,7:7
69,8:7
69,15:3
69,18:7
69,23:8
69,24:3
69,25:3
69,26:3
69,27:3
69,28:12
69,29:12
69,30:8
69,31:3
69,32:3
69,33:8
69,34:8
69,35:12
69,39:7
69,40:7
69,41:3
69,42:7
69,43:7
69,44:12
69,45:12
69,46:12
69,48:7
69,49:14
69,50:14
69,51:7
69,52:7
69,53:7
69,54:14
69,55:14
69,56:7
69,59:8
69,61:7
69,62:12
69,64:7
69,65:14
69,66:14
69,67:14
69,68:8
69,70:7
70,23:1
70,28:5
70,29:5
70,30:1
70,33:1
70,34:1
70,35:5
70,44:5
70,45:5
70,46:5
70,49:7
70,50:7
70,54:7
70,55:7
70,59:1
70,62:5
70,65:7
70,66:7
70,67:7
70,68:1

<end>

<optimal SALBP-1 value>
11


<rand seed>
467321153

